(set-logic QF_S)
(declare-fun var0 () String)
(declare-fun var1 () Int)
(declare-fun var2 () String)
(declare-fun var3 () String)
(declare-fun var4 () Int)
(declare-fun var5 () String)
(declare-fun var6 () Int)
(assert (str.suffixof (str.substr (str.substr var0 var1 13) (str.to.int var2) (str.to.int "sBr]x")) (str.at var3 var4)))
(assert (>= (str.len (str.substr var5 var6 113)) (str.to.int var0)))
(assert (not (str.prefixof var0 "b3l%ga/{")))
(assert (not (< 74 40)))
(check-sat)